Opti/lp/out.lp
min: x0 + x1 + x2 + x3 + x4 + x5 + x6 + x7 + x8 + x9 + x10 + x11 + x12 + x13 + x14 + x15 + x16 + x17 + x18 + x19 + x20 + x21 + x22 + x23 + x24;
0 x0 + 0 x1 + 0 x2 + 0 x3 + 0 x4 + 0 x5 + 0 x6 + 0 x7 + 0 x8 + 0 x9 + 0 x10 + 0 x11 + 0 x12 + 0 x13 + 0 x14 + 0 x15 + 1 x16 + 1 x17 + 1 x18 + 1 x19 + 1 x20 + 1 x21 + 1 x22 + 2 x23 + 2 x24 >= 60;
0 x0 + 0 x1 + 0 x2 + 0 x3 + 0 x4 + 0 x5 + 1 x6 + 1 x7 + 1 x8 + 1 x9 + 2 x10 + 2 x11 + 2 x12 + 3 x13 + 3 x14 + 4 x15 + 0 x16 + 0 x17 + 0 x18 + 0 x19 + 1 x20 + 1 x21 + 2 x22 + 0 x23 + 0 x24 >= 100;
0 x0 + 1 x1 + 2 x2 + 3 x3 + 4 x4 + 5 x5 + 0 x6 + 1 x7 + 2 x8 + 3 x9 + 0 x10 + 1 x11 + 2 x12 + 0 x13 + 1 x14 + 0 x15 + 0 x16 + 1 x17 + 2 x18 + 3 x19 + 0 x20 + 1 x21 + 0 x22 + 0 x23 + 1 x24 >= 150;
10 x0 + 8 x1 + 6 x2 + 4 x3 + 2 x4 + 0 x5 + 7 x6 + 5 x7 + 3 x8 + 1 x9 + 5 x10 + 3 x11 + 1 x12 + 2 x13 + 0 x14 + 0 x15 + 6 x16 + 4 x17 + 2 x18 + 0 x19 + 3 x20 + 1 x21 + 1 x22 + 2 x23 + 0 x24 >= 350;
int x0 x1 x2 x3 x4 x5 x6 x7 x8 x9 x10 x11 x12 x13 x14 x15 x16 x17 x18 x19 x20 x21 x22 x23 x24;
