Reseau/out.txt
A€
A€
A€
B€
B€
C€
C€
D€
E€
F€
G€
G€
J€
J€
K€
M€
M€
N€
O€
O€
P€
Q€
R€
R€
S€
